====================================================================================================================
File name: 100_20_65_9.def
Creation date: Mon Nov 24 20:40:29 CET 2014
Website: http://imopse.ii.pwr.edu.pl/
Reference:
Myszkowski P. B., Skowronski M. E., Olech L., Oslizlo K.,
Hybrid Ant Colony Optimization in solving Multi-Skill Resource-Constrained Project Scheduling Problem,
Soft Computing, DOI: DOI 10.1007/s00500-014-1455-x
====================================================================================================================
General characteristics:
Tasks: 100
Resources: 20
Precedence relations: 65
Number of skill types: 9
====================================================================================================================
ResourceID 	 Salary 	 Skills
1	 	 	68.2	 	 Q8: 0 	  Q6: 1 	  Q4: 1 	  Q1: 1 	  Q7: 0 	  Q0: 0
2	 	 	71.6	 	 Q8: 2 	  Q7: 2 	  Q4: 2 	  Q6: 0 	  Q3: 0 	  Q1: 0
3	 	 	46.6	 	 Q5: 2 	  Q1: 0 	  Q2: 1 	  Q3: 1 	  Q8: 1 	  Q6: 1
4	 	 	31.7	 	 Q4: 0 	  Q0: 0 	  Q2: 0 	  Q3: 1 	  Q8: 1 	  Q1: 0
5	 	 	10.3	 	 Q3: 0 	  Q4: 0 	  Q5: 0 	  Q6: 1 	  Q8: 0 	  Q2: 2
6	 	 	42.0	 	 Q5: 0 	  Q0: 2 	  Q7: 0 	  Q1: 0 	  Q4: 1 	  Q2: 2
7	 	 	35.8	 	 Q4: 0 	  Q8: 1 	  Q1: 1 	  Q3: 0 	  Q7: 1 	  Q2: 2
8	 	 	40.9	 	 Q1: 1 	  Q0: 0 	  Q8: 0 	  Q2: 1 	  Q3: 1 	  Q6: 1
9	 	 	57.7	 	 Q0: 0 	  Q2: 2 	  Q4: 2 	  Q1: 0 	  Q6: 0 	  Q8: 0
10	 	 	78.4	 	 Q7: 1 	  Q2: 0 	  Q6: 2 	  Q5: 0 	  Q1: 0 	  Q3: 0
11	 	 	41.0	 	 Q7: 0 	  Q6: 2 	  Q4: 0 	  Q5: 1 	  Q0: 2 	  Q2: 0
12	 	 	13.0	 	 Q2: 2 	  Q5: 1 	  Q7: 1 	  Q6: 1 	  Q0: 1 	  Q4: 0
13	 	 	81.1	 	 Q0: 2 	  Q6: 2 	  Q3: 0 	  Q1: 1 	  Q4: 2 	  Q2: 0
14	 	 	59.1	 	 Q2: 2 	  Q3: 0 	  Q6: 0 	  Q0: 1 	  Q4: 1 	  Q8: 2
15	 	 	56.2	 	 Q8: 2 	  Q3: 0 	  Q5: 0 	  Q4: 1 	  Q1: 2 	  Q2: 1
16	 	 	98.1	 	 Q1: 1 	  Q8: 0 	  Q4: 2 	  Q3: 2 	  Q6: 0 	  Q2: 1
17	 	 	56.3	 	 Q5: 2 	  Q8: 1 	  Q3: 1 	  Q6: 2 	  Q1: 2 	  Q4: 0
18	 	 	53.9	 	 Q3: 1 	  Q1: 1 	  Q4: 0 	  Q7: 0 	  Q0: 2 	  Q8: 0
19	 	 	80.6	 	 Q8: 2 	  Q5: 1 	  Q0: 2 	  Q2: 2 	  Q6: 0 	  Q1: 2
20	 	 	20.4	 	 Q4: 0 	  Q2: 2 	  Q3: 1 	  Q5: 2 	  Q8: 1 	  Q0: 2
====================================================================================================================
TaskID 	 Duration 	 Skill 	 Predecessor IDs
1	 	 	15	 Q8: 1
2	 	 	32	 Q2: 0
3	 	 	22	 Q4: 0
4	 	 	28	 Q8: 0
5	 	 	23	 Q4: 0
6	 	 	33	 Q0: 0
7	 	 	34	 Q7: 0	 	3
8	 	 	13	 Q7: 1
9	 	 	39	 Q1: 0
10	 	 	38	 Q1: 1
11	 	 	39	 Q2: 1
12	 	 	25	 Q2: 0
13	 	 	15	 Q6: 0
14	 	 	24	 Q0: 1
15	 	 	14	 Q5: 1
16	 	 	33	 Q6: 0
17	 	 	19	 Q0: 0
18	 	 	14	 Q1: 1
19	 	 	40	 Q4: 0	 	5
20	 	 	40	 Q2: 1
21	 	 	35	 Q4: 1	 	2
22	 	 	23	 Q6: 1	 	19
23	 	 	16	 Q2: 0
24	 	 	38	 Q6: 1	 	3
25	 	 	37	 Q6: 1	 	9
26	 	 	36	 Q7: 0
27	 	 	10	 Q7: 1
28	 	 	16	 Q5: 1
29	 	 	30	 Q7: 1
30	 	 	35	 Q1: 1
31	 	 	31	 Q6: 1
32	 	 	11	 Q2: 2	 	15
33	 	 	33	 Q4: 1
34	 	 	35	 Q4: 2
35	 	 	19	 Q0: 1
36	 	 	20	 Q6: 2
37	 	 	13	 Q0: 0
38	 	 	10	 Q4: 1	 	3
39	 	 	12	 Q3: 2
40	 	 	22	 Q6: 2	 	16
41	 	 	25	 Q1: 0
42	 	 	13	 Q7: 0	 	36
43	 	 	13	 Q6: 0
44	 	 	32	 Q6: 0	 	10
45	 	 	19	 Q4: 0	 	20
46	 	 	16	 Q0: 1	 	35
47	 	 	10	 Q5: 0	 	11
48	 	 	40	 Q5: 0	 	26
49	 	 	14	 Q4: 1
50	 	 	11	 Q1: 1
51	 	 	39	 Q6: 0
52	 	 	21	 Q3: 1	 	40
53	 	 	22	 Q7: 1	 	16
54	 	 	17	 Q8: 2	 	10	21	2	27
55	 	 	13	 Q0: 0	 	37
56	 	 	29	 Q4: 2
57	 	 	17	 Q2: 2
58	 	 	38	 Q6: 1
59	 	 	23	 Q8: 0	 	4	1
60	 	 	26	 Q7: 1	 	24	44
61	 	 	12	 Q6: 0
62	 	 	12	 Q0: 2	 	58
63	 	 	22	 Q5: 1
64	 	 	39	 Q6: 2
65	 	 	21	 Q3: 2
66	 	 	28	 Q1: 0
67	 	 	40	 Q3: 2
68	 	 	36	 Q1: 2	 	4
69	 	 	28	 Q1: 1	 	68
70	 	 	23	 Q7: 2
71	 	 	22	 Q8: 1
72	 	 	19	 Q4: 2	 	29
73	 	 	9	 Q6: 1	 	7	34
74	 	 	35	 Q6: 1
75	 	 	12	 Q1: 1	 	46	52	49
76	 	 	18	 Q8: 0	 	58	22
77	 	 	30	 Q7: 0	 	18	11	23
78	 	 	35	 Q8: 2
79	 	 	11	 Q8: 1
80	 	 	10	 Q0: 0	 	34	49	72
81	 	 	40	 Q1: 2	 	4
82	 	 	9	 Q7: 0	 	40
83	 	 	23	 Q1: 2
84	 	 	36	 Q2: 0	 	47	80
85	 	 	30	 Q8: 1	 	70
86	 	 	20	 Q2: 1	 	50
87	 	 	21	 Q8: 0	 	33	1
88	 	 	14	 Q4: 2
89	 	 	40	 Q8: 0	 	70
90	 	 	13	 Q0: 2	 	84
91	 	 	25	 Q6: 2
92	 	 	10	 Q3: 0	 	85
93	 	 	17	 Q8: 0
94	 	 	35	 Q1: 2
95	 	 	20	 Q7: 1	 	64	11
96	 	 	12	 Q2: 1	 	57	73	85	84	50
97	 	 	22	 Q0: 0	 	63	44
98	 	 	14	 Q6: 1	 	57
99	 	 	27	 Q7: 0
100	 	 	38	 Q6: 2	 	82
====================================================================================================================
